50
1 471 989
2 420 331
3 95 106
4 787 386
5 948 854
6 2 686
7 180 825
8 220 554
9 914 944
10 792 760
11 703 176
12 129 678
13 825 356
14 153 550
15 292 496
16 813 590
17 322 64
18 960 938
19 503 81
20 781 978
21 961 989
22 26 481
23 465 745
24 135 852
25 696 940
26 224 256
27 476 151
28 358 297
29 462 78
30 826 162
31 897 932
32 545 468
33 648 576
34 543 407
35 601 674
36 173 111
37 648 991
38 113 208
39 644 902
40 317 749
41 929 639
42 462 524
43 573 571
44 744 382
45 832 955
46 797 668
47 76 760
48 637 599
49 819 924
50 629 754
